1000
[[    0.     0.     0. ...,     0.     0.     0.]
 [    0.     0.     0. ...,    56.    56.    56.]
 [    0.     0.     0. ...,    98.    98.    98.]
 ..., 
 [    0.     0.     0. ...,  1211.  1211.  1211.]
 [    0.     0.     0. ...,  1211.  1211.  1211.]
 [    0.     0.     0. ...,  1211.  1211.  1211.]]
